TbInO3                                  
   1.0000000000000000     
     6.3733573382597122   -0.0000000000017741    0.0000000000000000
    -3.1866786691829523    5.5194893623842622   -0.0000000000000000
     0.0000000000000000    0.0000000000000000   12.3817134399729216
   Tb   In   O 
     6     6    18
Direct
  0.0000000000000000 -0.0000000000000000  0.2664421927066311
  0.0000000000000000 -0.0000000000000000  0.7664421627066286
  0.3333333429999996  0.6666666870000029  0.2300236426969568
  0.6666666269999979  0.3333333129999971  0.7300236426969569
  0.3333333129999971  0.6666666269999979  0.7300236426969569
  0.6666666870000029  0.3333333429999996  0.2300236426969568
  0.3335272602855988 -0.0000000000000000  0.9959709080729312
  0.0000000000000000  0.3335272602855988  0.9959709080729312
  0.6664727697143894  0.6664727697143894  0.9959709080729312
  0.6664727697143894 -0.0000000000000000  0.4959709080729312
  0.0000000000000000  0.6664727697143894  0.4959709080729312
  0.3335272602855988  0.3335272602855988  0.4959709080729312
  0.3055906414407818 -0.0000000000000000  0.1675844008029177
 -0.0000000000000000  0.3055906414407818  0.1675844008029177
  0.6944093295592193  0.6944093295592193  0.1675844008029177
  0.6944093295592122 -0.0000000000000000  0.6675844008029177
 -0.0000000000000000  0.6944093295592193  0.6675844008029177
  0.3055906414407818  0.3055906414407818  0.6675844008029177
  0.6373388846599960 -0.0000000000000000  0.3263463109465392
  0.0000000000000000  0.6373388846599960  0.3263463109465392
  0.3626611153400041  0.3626611153400041  0.3263463109465392
  0.3626611153400041 -0.0000000000000000  0.8263463109465391
  0.0000000000000000  0.3626611153400041  0.8263463109465391
  0.6373388846599960  0.6373388846599960  0.8263463109465391
  0.0000000000000000 -0.0000000000000000  0.4630265880700071
  0.0000000000000000 -0.0000000000000000  0.9630266180700096
  0.3333333429999996  0.6666666870000029  0.0258895536811515
  0.6666666269999979  0.3333333129999971  0.5258895776811535
  0.3333333129999971  0.6666666269999979  0.5258895776811535
  0.6666666870000029  0.3333333429999996  0.0258895536811515